SCIP version 5.0.0 [precision: 8 byte] [memory: block] [mode: optimized] [LP solver: NONE] [GitHash: 3bbd232]
Copyright (C) 2002-2017 Konrad-Zuse-Zentrum fuer Informationstechnik Berlin (ZIB)

External codes: 
  Readline EditLine w  GNU library for command line editing (gnu.org/s/readline)
  CppAD 20160000.1     Algorithmic Differentiation of C++ algorithms developed by B. Bell (www.coin-or.org/CppAD)
  ZLIB 1.2.5           General purpose compression library by J. Gailly and M. Adler (zlib.net)
  GMP 6.1.2            GNU Multiple Precision Arithmetic Library developed by T. Granlund (gmplib.org)

user parameter file <scip.set> not found - using default parameters

read problem <../../Split_data/output/biodeg/6/3_sample_biodeg.logreg>
============

File name	:	../../Split_data/output/biodeg/6/3_sample_biodeg.logreg
Problem name 	:	3_sample_biodeg
Number of data	:	844
Number of var	:	41
The given data has linear independence

[dim=1] time: 0.030345
[dim=2] time: 0.060619
[dim=3] time: 0.096727
[dim=4] time: 0.129433
[dim=5] time: 0.161291
[dim=6] time: 0.189614
[dim=7] time: 0.21961
[dim=8] time: 0.246394
[dim=9] time: 0.272286
[dim=10] time: 0.303605
[dim=11] time: 0.331949
[dim=12] time: 0.359042
[dim=13] time: 0.389063
[dim=14] time: 0.4216
[dim=15] time: 0.456422
[dim=16] time: 0.481974
[dim=17] time: 0.506338
[dim=18] time: 0.531786
[dim=19] time: 0.559401
[dim=20] Time of forward = 0.580559sec.
AIC: 522.658
k: 19

[dim=41] time: 0.150735
[dim=40] time: 0.196777
[dim=39] time: 0.251414
[dim=38] time: 0.307276
[dim=37] time: 0.361368
[dim=36] time: 0.409388
[dim=35] time: 0.47028
[dim=34] time: 0.526484
[dim=33] time: 0.579405
[dim=32] time: 0.622411
[dim=31] time: 0.668571
[dim=30] time: 0.707112
[dim=29] time: 0.749157
[dim=28] time: 0.795059
[dim=27] time: 0.872722
[dim=26] time: 0.90231
[dim=25] time: 0.934403
[dim=24] time: 0.968841
[dim=23] time: 0.994636
[dim=22] Time of backward = 1.0237sec.
AIC: 516.887
k: 23
